Data path: /scratch/opt/lxu/CFLG/benchmarks/tree_B
Instance: treeB.40.6
Result path: /scratch/opt/lxu/CFLG/results/tree_B
Solver: Gurobi
Time limit: 7200
Formulation: LEFPAI
Cover: Large
julia --project=. src/main.jl /scratch/opt/lxu/CFLG/benchmarks/tree_B treeB.40.6 /scratch/opt/lxu/CFLG/results/tree_B Gurobi 7200 LEFPAI Large
The latest version of Julia in the `release` channel is 1.11.6+0.x64.linux.gnu. You currently have `1.11.4+0.x64.linux.gnu` installed. Run:

  juliaup update

in your terminal shell to install Julia 1.11.6+0.x64.linux.gnu and update the `release` channel to that version.
/scratch/opt/lxu/CFLG/benchmarks/tree_B Gurobi 7200.0 /scratch/opt/lxu/CFLG/results/tree_B treeB.40.6 LEFPAI Large
/scratch/opt/lxu/CFLG/benchmarks/tree_B/treeB.40.6

 read graph
data loaded

problem_graph/original graph: node: 40/40 edge: 45/45 dlt: 3.0351325930761126 break_avg_len: 1.5175662965380563 break_max_len: 1.997325777989161Vbar/V, Ebar/E(38, 40, 43, 45)
Set parameter TokenServer to value "solice01.zib.de"
Set parameter Threads to value 1
Set parameter OutputFlag to value 1
Gurobi Optimizer version 12.0.1 build v12.0.1rc0 (linux64 - "Debian GNU/Linux 12 (bookworm)")

CPU model: Intel(R) Xeon(R) Gold 5222 CPU @ 3.80GHz, instruction set [SSE2|AVX|AVX2|AVX512]
Thread count: 8 physical cores, 16 logical processors, using up to 1 threads

Non-default parameters:
Threads  1

Optimize a model with 83 rows, 132 columns and 220 nonzeros
Model fingerprint: 0x6f85bab7
Coefficient statistics:
  Matrix range     [1e+00, 1e+00]
  Objective range  [1e+00, 1e+00]
  Bounds range     [1e+00, 1e+00]
  RHS range        [1e+00, 1e+00]
Presolve removed 50 rows and 66 columns
Presolve time: 0.00s
Presolved: 33 rows, 66 columns, 104 nonzeros

Iteration    Objective       Primal Inf.    Dual Inf.      Time
       0    3.7000000e+01   2.000000e+01   0.000000e+00      0s
      11    2.3000000e+01   0.000000e+00   0.000000e+00      0s

Solved in 11 iterations and 0.00 seconds (0.00 work units)
Optimal objective  2.300000000e+01

User-callback calls 91, time in user-callback 0.00 sec
elapsed CPU time: 1.003832 seconds
Set parameter TokenServer to value "solice01.zib.de"
Set parameter Threads to value 1
Set parameter OutputFlag to value 1
Set parameter MIPGap to value 0.0001
Set parameter TimeLimit to value 7198.996168

 more cuts: false 3.0351325930761126 false
is_attach:trueformulation:LEFPAI0 44 39

 model loaded

Gurobi Optimizer version 12.0.1 build v12.0.1rc0 (linux64 - "Debian GNU/Linux 12 (bookworm)")

CPU model: Intel(R) Xeon(R) Gold 5222 CPU @ 3.80GHz, instruction set [SSE2|AVX|AVX2|AVX512]
Thread count: 8 physical cores, 16 logical processors, using up to 1 threads

Non-default parameters:
TimeLimit  7198.996168
Threads  1

Optimize a model with 915 rows, 759 columns and 2453 nonzeros
Model fingerprint: 0xd95a0434
Model has 544 simple general constraints
  544 INDICATOR
Variable types: 127 continuous, 632 integer (632 binary)
Coefficient statistics:
  Matrix range     [4e-01, 2e+00]
  Objective range  [1e+00, 1e+00]
  Bounds range     [4e-01, 2e+00]
  RHS range        [4e-01, 4e+00]
  GenCon rhs range [2e-02, 3e+00]
  GenCon coe range [1e+00, 1e+00]
Presolve added 102 rows and 0 columns
Presolve removed 0 rows and 189 columns
Presolve time: 0.04s
Presolved: 1017 rows, 570 columns, 5140 nonzeros
Variable types: 78 continuous, 492 integer (492 binary)
Found heuristic solution: objective 27.0000000
Found heuristic solution: objective 26.0000000
Found heuristic solution: objective 25.0000000

Root relaxation: objective 9.000000e+00, 330 iterations, 0.00 seconds (0.00 work units)

    Nodes    |    Current Node    |     Objective Bounds      |     Work
 Expl Unexpl |  Obj  Depth IntInf | Incumbent    BestBd   Gap | It/Node Time

     0     0    9.00000    0   15   25.00000    9.00000  64.0%     -    0s
H    0     0                      19.0000000    9.00000  52.6%     -    0s
H    0     0                      10.0000000    9.00000  10.0%     -    0s
     0     0    9.00000    0   56   10.00000    9.00000  10.0%     -    0s
     0     0    9.00000    0   55   10.00000    9.00000  10.0%     -    0s
H    0     0                       9.0000000    9.00000  0.00%     -    0s
     0     0    9.00000    0   55    9.00000    9.00000  0.00%     -    0s

Cutting planes:
  Cover: 1
  MIR: 9
  RLT: 2

Explored 1 nodes (947 simplex iterations) in 0.08 seconds (0.07 work units)
Thread count was 1 (of 16 available processors)

Solution count 6: 9 10 19 ... 27

Optimal solution found (tolerance 1.00e-04)
Warning: max constraint violation (1.1924e-06) exceeds tolerance
Warning: max general constraint violation (1.1924e-06) exceeds tolerance
Best objective 9.000000000000e+00, best bound 9.000000000000e+00, gap 0.0000%

User-callback calls 976, time in user-callback 0.00 sec

 sepatime0 0 0
9.0
Stat(MathOptInterface.OPTIMAL, 9.0, 9.0, 0.0, 0.0, 1.003832, 0.07711100578308105, 1, Main.CFLG.LEFPAI, "", #undef)
ERROR: LoadError: SystemError: opening file "/scratch/opt/lxu/CFLG/results/tree_B/treeB.40.6.LEFPAI.Large": No such file or directory
Stacktrace:
 [1] systemerror(p::String, errno::Int32; extrainfo::Nothing)
   @ Base ./error.jl:176
 [2] systemerror
   @ ./error.jl:175 [inlined]
 [3] open(fname::String; lock::Bool, read::Nothing, write::Nothing, create::Nothing, truncate::Bool, append::Nothing)
   @ Base ./iostream.jl:295
 [4] open
   @ ./iostream.jl:277 [inlined]
 [5] open(fname::String, mode::String; lock::Bool)
   @ Base ./iostream.jl:358
 [6] open
   @ ./iostream.jl:357 [inlined]
 [7] main(args::Vector{String})
   @ Main /scratch/opt/lxu/CFLG/src/main.jl:51
 [8] top-level scope
   @ /scratch/opt/lxu/CFLG/src/main.jl:57
in expression starting at /scratch/opt/lxu/CFLG/src/main.jl:57
srun: error: htc-cmp483: task 0: Exited with exit code 1
